c turning on binary mode checking
c parsing input formula with 259840 variables and 1039924 clauses
c finished parsing, read 3135708 bytes from proof file
c detected empty clause; start verification via backward checking
c 2059 of 1039924 clauses in core                            
c 362 of 124366 lemmas in core using 13860 resolution steps
c 0 RAT lemmas in core; 35 redundant literals in core lemmas
s VERIFIED
c verification time: 1.226 seconds
